1 -1 -2 0
1 -1 3 0
1 -4 -1 0
1 4 -5 0
1 -6 -7 0
1 -6 -8 0
1 -6 -9 0
1 -7 10 0
1 -7 -5 0
1 11 7 0
1 -3 -12 0
1 3 -13 0
1 3 -11 0
1 -3 14 0
1 -15 6 0
1 -5 -16 0
1 -5 -15 0
1 -5 -17 0
1 -5 6 0
1 -18 19 0
1 -18 13 0
1 -13 -10 0
1 20 19 0
1 12 19 0
1 12 -11 0
1 9 -10 0
1 10 12 0
1 10 21 0
1 10 -22 0
1 8 -16 0
1 8 23 0
1 19 -8 0
1 24 10 0
1 -25 16 0
1 26 27 0
1 -26 -23 0
1 26 9 0
1 -28 12 0
1 -29 12 0
1 29 -20 0
1 -29 30 0
1 31 32 0
1 31 33 0
1 -31 -34 0
1 31 -24 0
1 -2 35 0
1 2 36 0
1 -37 35 0
1 38 39 0
1 -38 40 0
1 -38 -41 0
1 42 43 0
1 42 -36 0
1 -42 -2 0
1 36 44 0
1 39 -45 0
1 -39 46 0
1 39 47 0
1 39 -38 0
1 35 48 0
1 -35 -49 0
1 -17 50 0
1 -17 47 0
1 -51 -42 0
1 -52 43 0
1 52 36 0
1 52 -50 0
1 43 -53 0
1 -43 36 0
1 -43 -54 0
1 40 23 0
1 50 43 0
1 -50 52 0
1 50 38 0
1 55 56 0
1 14 -3 0
1 16 25 0
1 -16 -50 0
1 16 -57 0
1 23 -58 0
1 -23 57 0
1 -59 40 0
1 59 -23 0
1 -59 60 0
1 61 16 0
1 -61 14 0
1 62 -63 0
1 57 43 0
1 -57 -64 0
1 -57 -14 0
1 -57 63 0
1 -21 65 0
1 -22 -65 0
1 -22 60 0
1 34 66 0
1 34 67 0
1 -34 30 0
1 34 -60 0
1 -30 68 0
1 -30 69 0
1 -70 -71 0
1 70 72 0
1 -70 22 0
1 -69 -71 0
1 69 64 0
1 -69 73 0
1 69 -22 0
1 -60 -74 0
1 -75 66 0
1 -76 31 0
1 76 75 0
1 76 -65 0
1 76 -66 0
1 -72 -70 0
1 72 -33 0
1 72 77 0
1 -78 -79 0
1 -78 68 0
1 -78 -33 0
1 78 -80 0
1 78 -67 0
1 67 -81 0
1 67 72 0
1 67 34 0
1 -67 9 0
1 -67 -78 0
1 -68 -72 0
1 -68 75 0
1 68 67 0
1 -68 76 0
1 66 71 0
1 -66 -8 0
1 -66 82 0
1 -66 76 0
1 -79 -83 0
1 79 -71 0
1 -79 66 0
1 -79 84 0
1 -85 80 0
1 -85 -86 0
1 -81 68 0
1 -81 -87 0
1 87 -68 0
1 -87 -81 0
1 -80 -88 0
1 -80 -27 0
1 80 -85 0
1 -80 89 0
1 90 -88 0
1 90 -91 0
1 90 81 0
1 90 33 0
1 90 -87 0
1 -90 92 0
1 33 93 0
1 -33 90 0
1 -94 -95 0
1 94 96 0
1 -97 -98 0
1 -41 -99 0
1 -41 38 0
1 -100 96 0
1 96 53 0
1 -96 -97 0
1 -96 -46 0
1 -99 48 0
1 -99 -101 0
1 -99 94 0
1 95 98 0
1 95 102 0
1 98 -101 0
1 98 41 0
1 -47 -39 0
1 47 -99 0
1 47 -48 0
1 -47 -103 0
1 -48 99 0
1 -48 -104 0
1 46 -39 0
1 46 99 0
1 -53 105 0
1 53 106 0
1 53 -107 0
1 53 -108 0
1 -53 109 0
1 -108 -53 0
1 108 -110 0
1 -108 46 0
1 -108 111 0
1 -112 48 0
1 -104 53 0
1 104 113 0
1 -104 46 0
1 -103 -114 0
1 103 115 0
1 -103 -101 0
1 -103 -47 0
1 110 -116 0
1 110 -39 0
1 110 36 0
1 45 -35 0
1 45 54 0
1 58 117 0
1 58 113 0
1 58 -108 0
1 58 109 0
1 -117 118 0
1 117 106 0
1 117 109 0
1 -116 45 0
1 116 -119 0
1 116 -58 0
1 107 -58 0
1 107 -46 0
1 -109 -53 0
1 -109 106 0
1 109 -120 0
1 -109 110 0
1 -109 -46 0
1 -109 121 0
1 -106 119 0
1 106 58 0
1 106 122 0
1 -106 -121 0
1 -123 -40 0
1 123 21 0
1 123 -50 0
1 124 125 0
1 126 127 0
1 126 107 0
1 -126 -120 0
1 -126 63 0
1 -63 -116 0
1 63 128 0
1 125 124 0
1 -125 64 0
1 125 123 0
1 125 -58 0
1 -44 124 0
1 -44 -117 0
1 118 -124 0
1 118 -129 0
1 -118 -126 0
1 -118 -63 0
1 49 117 0
1 -49 -130 0
1 49 126 0
1 64 -131 0
1 -64 -73 0
1 -73 56 0
1 -73 -69 0
1 77 125 0
1 77 56 0
1 -77 72 0
1 77 -69 0
1 -77 128 0
1 77 -132 0
1 -133 125 0
1 133 -134 0
1 -127 135 0
1 -127 -64 0
1 127 -136 0
1 127 -73 0
1 137 133 0
1 56 -138 0
1 56 -55 0
1 -56 128 0
1 -71 93 0
1 71 -127 0
1 71 69 0
1 -71 -134 0
1 86 71 0
1 86 139 0
1 -86 -66 0
1 86 140 0
1 -135 -141 0
1 -135 -127 0
1 135 66 0
1 135 -74 0
1 -84 79 0
1 -84 139 0
1 -84 -87 0
1 -142 -61 0
1 142 -143 0
1 -142 132 0
1 -132 -71 0
1 132 -77 0
1 132 144 0
1 139 -135 0
1 139 77 0
1 -134 71 0
1 -134 84 0
1 134 57 0
1 -145 146 0
1 -145 82 0
1 -82 -79 0
1 82 -145 0
1 143 141 0
1 147 -145 0
1 147 135 0
1 -147 -148 0
1 147 149 0
1 147 -150 0
1 -141 -91 0
1 141 151 0
1 141 152 0
1 -141 -143 0
1 141 153 0
1 -146 -154 0
1 146 69 0
1 -146 -155 0
1 146 143 0
1 146 -156 0
1 146 74 0
1 -74 -154 0
1 74 -155 0
1 -74 -143 0
1 -74 84 0
1 88 -90 0
1 -88 89 0
1 -152 -141 0
1 -152 -90 0
1 150 -83 0
1 150 -157 0
1 158 147 0
1 -159 160 0
1 -161 -91 0
1 -161 -162 0
1 157 163 0
1 157 -143 0
1 83 88 0
1 83 -157 0
1 83 -150 0
1 -164 -153 0
1 -165 -161 0
1 -165 -159 0
1 -165 92 0
1 -165 -166 0
1 -160 -167 0
1 -160 162 0
1 -168 166 0
1 168 80 0
1 168 150 0
1 92 -169 0
1 92 163 0
1 92 -170 0
1 92 171 0
1 -92 -150 0
1 167 163 0
1 -167 -165 0
1 -167 171 0
1 167 -162 0
1 -167 -150 0
1 -172 173 0
1 -172 174 0
1 -175 176 0
1 -175 177 0
1 175 -173 0
1 -173 -175 0
1 -173 -178 0
1 -174 179 0
1 -174 180 0
1 177 -181 0
1 182 175 0
1 182 172 0
1 -102 98 0
1 -102 183 0
1 -102 95 0
1 102 -174 0
1 -183 -174 0
1 179 184 0
1 105 -98 0
1 105 95 0
1 -105 179 0
1 185 -115 0
1 185 -183 0
1 185 186 0
1 -187 -115 0
1 -187 175 0
1 187 188 0
1 -184 179 0
1 -176 -189 0
1 176 105 0
1 -176 179 0
1 -176 190 0
1 -101 99 0
1 101 -191 0
1 101 192 0
1 101 -110 0
1 -101 -104 0
1 -115 191 0
1 115 96 0
1 113 193 0
1 113 194 0
1 -113 185 0
1 114 -104 0
1 -194 195 0
1 -191 189 0
1 191 188 0
1 191 -196 0
1 193 115 0
1 -195 103 0
1 195 123 0
1 -195 104 0
1 197 194 0
1 -197 -112 0
1 197 -198 0
1 197 -199 0
1 120 200 0
1 121 -201 0
1 -121 -106 0
1 -121 192 0
1 121 111 0
1 -121 -63 0
1 199 202 0
1 199 120 0
1 -199 -195 0
1 199 -96 0
1 -199 -122 0
1 -203 114 0
1 -203 119 0
1 198 204 0
1 198 -205 0
1 198 -206 0
1 -119 -207 0
1 -119 199 0
1 122 119 0
1 -122 -208 0
1 -122 -73 0
1 122 111 0
1 209 -200 0
1 210 211 0
1 210 133 0
1 210 212 0
1 210 -213 0
1 -111 209 0
1 -111 -207 0
1 -111 214 0
1 -111 -121 0
1 207 -215 0
1 207 119 0
1 -207 -216 0
1 208 -217 0
1 208 -218 0
1 208 -120 0
1 -200 -103 0
1 -200 218 0
1 130 219 0
1 -130 -207 0
1 -140 56 0
1 -215 -220 0
1 -215 -221 0
1 222 -84 0
1 -222 213 0
1 -219 -223 0
1 219 138 0
1 -219 -215 0
1 -219 209 0
1 -219 -224 0
1 -211 138 0
1 211 -107 0
1 211 225 0
1 -211 140 0
1 -213 -226 0
1 -220 -227 0
1 220 -228 0
1 220 -209 0
1 220 -229 0
1 220 216 0
1 -138 -230 0
1 136 -137 0
1 136 134 0
1 -223 91 0
1 -223 -228 0
1 -223 -231 0
1 -224 -232 0
1 224 -233 0
1 -224 221 0
1 -224 -234 0
1 224 231 0
1 -232 -235 0
1 -232 224 0
1 -221 -235 0
1 -221 -236 0
1 -129 -237 0
1 -129 136 0
1 -230 136 0
1 -230 -238 0
1 -154 -233 0
1 154 139 0
1 154 -155 0
1 154 234 0
1 -154 -132 0
1 -155 -233 0
1 -155 -142 0
1 155 -132 0
1 -236 239 0
1 236 221 0
1 236 234 0
1 -236 -74 0
1 -235 -240 0
1 -235 241 0
1 235 -231 0
1 233 -154 0
1 -233 155 0
1 231 155 0
1 -231 -242 0
1 231 153 0
1 -243 -154 0
1 243 -224 0
1 243 234 0
1 -234 223 0
1 -234 244 0
1 -234 245 0
1 234 246 0
1 -153 83 0
1 153 233 0
1 153 -247 0
1 153 -146 0
1 -153 -157 0
1 153 231 0
1 -153 -164 0
1 -153 -144 0
1 -153 -74 0
1 148 -233 0
1 148 247 0
1 148 248 0
1 148 -153 0
1 -249 -250 0
1 249 -240 0
1 -249 251 0
1 -250 -233 0
1 -250 240 0
1 240 -144 0
1 240 252 0
1 144 -132 0
1 144 -153 0
1 -144 -253 0
1 -247 139 0
1 247 148 0
1 247 -242 0
1 -247 -153 0
1 -251 -148 0
1 -251 153 0
1 -163 244 0
1 171 -254 0
1 171 -255 0
1 -256 151 0
1 -256 -257 0
1 256 -258 0
1 -256 -259 0
1 149 -260 0
1 149 256 0
1 -149 -261 0
1 149 -252 0
1 151 260 0
1 -151 256 0
1 151 -250 0
1 151 261 0
1 -151 170 0
1 -156 -260 0
1 156 -254 0
1 -156 -262 0
1 156 252 0
1 254 263 0
1 -254 -74 0
1 170 151 0
1 -169 -258 0
1 169 168 0
1 -169 -149 0
1 -169 -92 0
1 264 265 0
1 -264 -266 0
1 -255 -171 0
1 258 -267 0
1 -259 -256 0
1 -259 -268 0
1 -259 269 0
1 -270 271 0
1 -270 261 0
1 270 -272 0
1 -270 273 0
1 -272 271 0
1 -272 265 0
1 -272 273 0
1 274 -258 0
1 274 265 0
1 -274 -269 0
1 273 264 0
1 -273 272 0
1 265 270 0
1 -265 -266 0
1 275 -271 0
1 271 167 0
1 271 272 0
1 188 193 0
1 -188 178 0
1 -188 195 0
1 -188 -191 0
1 -188 -180 0
1 188 187 0
1 189 180 0
1 276 201 0
1 -276 -277 0
1 -276 278 0
1 201 -278 0
1 -201 186 0
1 -201 121 0
1 -178 206 0
1 178 -180 0
1 -180 -178 0
1 180 279 0
1 180 276 0
1 278 -201 0
1 -278 177 0
1 -280 -276 0
1 -280 -188 0
1 279 178 0
1 279 281 0
1 -206 -193 0
1 -206 -282 0
1 -206 -198 0
1 -206 180 0
1 -204 -281 0
1 204 -186 0
1 -212 277 0
1 212 -283 0
1 212 284 0
1 -212 -186 0
1 -186 201 0
1 -186 276 0
1 -186 -212 0
1 -186 206 0
1 277 276 0
1 -277 -186 0
1 -277 -285 0
1 -277 -286 0
1 281 -184 0
1 287 -281 0
1 287 212 0
1 -287 -206 0
1 218 203 0
1 -218 -288 0
1 -218 198 0
1 -205 -277 0
1 -205 218 0
1 -205 140 0
1 -289 196 0
1 289 -208 0
1 286 290 0
1 288 -291 0
1 -288 -284 0
1 288 -292 0
1 288 -205 0
1 -284 228 0
1 284 -194 0
1 284 -286 0
1 -284 -205 0
1 196 -291 0
1 196 -285 0
1 -196 286 0
1 196 205 0
1 -196 212 0
1 283 193 0
1 -283 289 0
1 283 -218 0
1 -217 284 0
1 -217 293 0
1 217 294 0
1 217 -200 0
1 217 111 0
1 217 -213 0
1 -216 217 0
1 216 -294 0
1 216 295 0
1 -216 288 0
1 -216 111 0
1 -228 -226 0
1 226 294 0
1 -202 241 0
1 -202 -237 0
1 -202 -216 0
1 202 -286 0
1 -202 -199 0
1 -202 -296 0
1 295 -228 0
1 295 -289 0
1 295 297 0
1 -295 226 0
1 295 202 0
1 290 -291 0
1 290 -228 0
1 -290 -294 0
1 -290 -292 0
1 -294 228 0
1 294 -298 0
1 -294 226 0
1 -227 -154 0
1 227 291 0
1 227 -230 0
1 -237 219 0
1 237 -295 0
1 237 -220 0
1 -237 -155 0
1 237 -230 0
1 -237 214 0
1 -239 299 0
1 239 214 0
1 -241 -129 0
1 -241 -295 0
1 -241 300 0
1 241 214 0
1 -301 -302 0
1 303 -304 0
1 -303 305 0
1 306 200 0
1 306 297 0
1 -306 226 0
1 -248 307 0
1 248 301 0
1 -246 -307 0
1 -246 308 0
1 246 -309 0
1 -246 -234 0
1 310 -307 0
1 310 -229 0
1 310 -238 0
1 -310 -246 0
1 299 239 0
1 -299 -248 0
1 225 -257 0
1 225 -310 0
1 -307 311 0
1 307 -312 0
1 -307 313 0
1 -307 241 0
1 307 -302 0
1 307 246 0
1 -229 239 0
1 229 -310 0
1 -229 -246 0
1 -242 -299 0
1 -242 -233 0
1 242 -238 0
1 -242 231 0
1 -244 243 0
1 -244 251 0
1 -314 257 0
1 314 -315 0
1 314 -316 0
1 314 225 0
1 -314 -317 0
1 -257 317 0
1 -257 -314 0
1 309 -318 0
1 309 -263 0
1 -309 -314 0
1 -309 -242 0
1 -308 -312 0
1 -238 -319 0
1 -238 310 0
1 238 320 0
1 -238 -314 0
1 263 262 0
1 263 -321 0
1 263 322 0
1 -262 -315 0
1 -262 -317 0
1 -262 -245 0
1 -323 324 0
1 -323 -156 0
1 -323 -320 0
1 -323 245 0
1 324 -254 0
1 324 -315 0
1 -324 -253 0
1 -316 -260 0
1 -316 -324 0
1 316 323 0
1 316 -314 0
1 322 -262 0
1 -322 -268 0
1 -322 231 0
1 315 319 0
1 315 324 0
1 -315 323 0
1 245 324 0
1 -245 -257 0
1 245 -325 0
1 -261 326 0
1 261 327 0
1 261 -328 0
1 -261 -253 0
1 -260 254 0
1 260 316 0
1 -260 328 0
1 -268 253 0
1 269 329 0
1 269 253 0
1 327 240 0
1 -327 -253 0
1 326 260 0
1 328 268 0
1 -328 323 0
1 293 -330 0
1 -285 -186 0
1 331 -283 0
1 -331 -332 0
1 -331 -333 0
1 331 334 0
1 335 336 0
1 -335 337 0
1 335 -334 0
1 -335 330 0
1 332 338 0
1 330 335 0
1 -330 -339 0
1 -334 280 0
1 -292 283 0
1 -292 -294 0
1 -340 294 0
1 -300 -341 0
1 300 -342 0
1 343 340 0
1 343 -305 0
1 336 -340 0
1 336 -344 0
1 -336 -345 0
1 336 -346 0
1 333 335 0
1 -333 -345 0
1 -347 348 0
1 -347 345 0
1 -296 -297 0
1 -296 343 0
1 -296 303 0
1 -297 341 0
1 -297 -294 0
1 -297 -248 0
1 346 -336 0
1 346 342 0
1 305 336 0
1 305 -349 0
1 -342 340 0
1 -342 -305 0
1 -342 -297 0
1 -342 -300 0
1 342 288 0
1 -341 350 0
1 -341 300 0
1 349 -196 0
1 -349 351 0
1 -349 -352 0
1 -353 -340 0
1 -353 352 0
1 302 354 0
1 -304 307 0
1 304 244 0
1 -304 -214 0
1 -355 -307 0
1 355 356 0
1 313 -355 0
1 313 -357 0
1 356 -305 0
1 358 305 0
1 -358 -302 0
1 -354 290 0
1 -354 352 0
1 -354 346 0
1 -298 359 0
1 -298 313 0
1 298 304 0
1 298 -355 0
1 298 -346 0
1 -321 299 0
1 -321 -312 0
1 -321 -358 0
1 321 -225 0
1 -312 -307 0
1 -312 262 0
1 -312 229 0
1 312 -321 0
1 -320 308 0
1 320 -357 0
1 -360 311 0
1 -360 -320 0
1 -360 356 0
1 -357 361 0
1 357 362 0
1 361 319 0
1 361 -357 0
1 361 -301 0
1 -361 320 0
1 361 -321 0
1 361 -355 0
1 -363 320 0
1 -363 -355 0
1 -318 -309 0
1 -318 -238 0
1 -318 -317 0
1 -319 309 0
1 319 -364 0
1 -319 -245 0
1 -325 364 0
1 362 365 0
1 -362 -315 0
1 -364 -360 0
1 311 -360 0
1 -311 -325 0
1 311 -320 0
1 -366 -311 0
1 366 -318 0
1 366 -362 0
1 345 338 0
1 -345 -339 0
1 367 -368 0
1 -369 -344 0
1 369 370 0
1 -369 -368 0
1 371 338 0
1 338 339 0
1 -338 -352 0
1 338 369 0
1 -339 -338 0
1 339 345 0
1 370 -345 0
1 368 -345 0
1 -352 -353 0
1 352 338 0
1 352 -321 0
1 350 -372 0
1 -350 373 0
1 374 -375 0
1 359 -348 0
1 359 -376 0
1 -359 -375 0
1 359 -374 0
1 -359 351 0
1 373 377 0
1 -373 350 0
1 -344 336 0
1 -344 378 0
1 -372 -350 0
1 372 -333 0
1 -372 374 0
1 -348 372 0
1 -348 -352 0
1 348 -369 0
1 -379 380 0
1 379 351 0
1 380 -319 0
1 -380 -375 0
1 380 379 0
1 378 -344 0
1 378 363 0
1 -377 -376 0
1 381 377 0
1 -381 -342 0
1 -351 378 0
1 -351 -379 0
1 -376 379 0
